var -99.0..11.0: FLOAT____00001 :: is_defined_var :: var_is_introduced;
var -98.0..12.0: FLOAT____00002 :: is_defined_var :: var_is_introduced;
var -1188.0..9702.0: FLOAT____00003 :: is_defined_var :: var_is_introduced;
var -97.0..13.0: FLOAT____00004 :: is_defined_var :: var_is_introduced;
var -941094.0..126126.0: FLOAT____00005 :: is_defined_var :: var_is_introduced;
var -96.0..14.0: FLOAT____00006 :: is_defined_var :: var_is_introduced;
var -13175316.0..90345024.0: FLOAT____00007 :: is_defined_var :: var_is_introduced;
var -95.0..15.0: FLOAT____00008 :: is_defined_var :: var_is_introduced;
var -8582777280.0..1355175360.0: FLOAT____00009 :: is_defined_var :: var_is_introduced;
var -94.0..16.0: FLOAT____00010 :: is_defined_var :: var_is_introduced;
var -137324436480.0..806781064320.0: FLOAT____00011 :: is_defined_var :: var_is_introduced;
var -93.0..17.0: FLOAT____00012 :: is_defined_var :: var_is_introduced;
var -75030638981760.0..13715278093440.0: FLOAT____00013 :: is_defined_var :: var_is_introduced;
var -92.0..18.0: FLOAT____00014 :: is_defined_var :: var_is_introduced;
var -1.35055150167168e+15..6.90281878632192e+15: FLOAT____00015 :: is_defined_var :: var_is_introduced;
var -91.0..19.0: FLOAT____00016 :: is_defined_var :: var_is_introduced;
var -6.281565095552947e+17..1.3115355694011648e+17: FLOAT____00017 :: is_defined_var :: var_is_introduced;
var -90.0..20.0: FLOAT____00018 :: is_defined_var :: var_is_introduced;
var -1.2563130191105894e+19..5.653408585997653e+19: FLOAT____00019 :: is_defined_var :: var_is_introduced;
var -89.0..21.0: FLOAT____00020 :: is_defined_var :: var_is_introduced;
var -5.031533641537911e+21..1.187215803059507e+21: FLOAT____00021 :: is_defined_var :: var_is_introduced;
var -88.0..22.0: FLOAT____00022 :: is_defined_var :: var_is_introduced;
var -1.1069374011383404e+23..4.427749604553362e+23: FLOAT____00023 :: is_defined_var :: var_is_introduced;
var -87.0..23.0: FLOAT____00024 :: is_defined_var :: var_is_introduced;
var -3.852142155961425e+25..1.0183824090472731e+25: FLOAT____00025 :: is_defined_var :: var_is_introduced;
var -86.0..24.0: FLOAT____00026 :: is_defined_var :: var_is_introduced;
var -9.24514117430742e+26..3.3128422541268255e+27: FLOAT____00027 :: is_defined_var :: var_is_introduced;
var -85.0..25.0: FLOAT____00028 :: is_defined_var :: var_is_introduced;
var -2.8159159160078018e+29..8.282105635317063e+28: FLOAT____00029 :: is_defined_var :: var_is_introduced;
var -84.0..26.0: FLOAT____00030 :: is_defined_var :: var_is_introduced;
var -7.321381381620285e+30..2.3653693694465535e+31: FLOAT____00031 :: is_defined_var :: var_is_introduced;
var -83.0..27.0: FLOAT____00032 :: is_defined_var :: var_is_introduced;
var -1.9632565766406395e+33..6.386497297505694e+32: FLOAT____00033 :: is_defined_var :: var_is_introduced;
var -82.0..28.0: FLOAT____00034 :: is_defined_var :: var_is_introduced;
var -5.497118414593791e+34..1.6098703928453244e+35: FLOAT____00035 :: is_defined_var :: var_is_introduced;
var -81.0..29.0: FLOAT____00036 :: is_defined_var :: var_is_introduced;
var -1.3039950182047127e+37..4.668624139251441e+36: FLOAT____00037 :: is_defined_var :: var_is_introduced;
var -80.0..30.0: FLOAT____00038 :: is_defined_var :: var_is_introduced;
var -3.911985054614138e+38..1.04319601456377e+39: FLOAT____00039 :: is_defined_var :: var_is_introduced;
var -1.1920928955078001e-05..1.1920928955078e-06: FLOAT____00040 :: is_defined_var :: var_is_introduced;
var -0.00011920928955078002..0.0011920928955078001: FLOAT____00041 :: is_defined_var :: var_is_introduced;
var -0.11920928955078001..0.011920928955078002: FLOAT____00042 :: is_defined_var :: var_is_introduced;
var -1.1920928955078003..11.920928955078: FLOAT____00043 :: is_defined_var :: var_is_introduced;
var -1192.0928955078..119.20928955078003: FLOAT____00044 :: is_defined_var :: var_is_introduced;
var -11920.928955078003..119209.28955078: FLOAT____00045 :: is_defined_var :: var_is_introduced;
var -11920928.955078..1192092.8955078004: FLOAT____00046 :: is_defined_var :: var_is_introduced;
var -119209289.55078004..1192092895.5078: FLOAT____00047 :: is_defined_var :: var_is_introduced;
var -119209289550.78001..11920928955.078005: FLOAT____00048 :: is_defined_var :: var_is_introduced;
var -1192092895507.8005..11920928955078.002: FLOAT____00049 :: is_defined_var :: var_is_introduced;
var -1192092895507800.2..119209289550780.05: FLOAT____00050 :: is_defined_var :: var_is_introduced;
var -11920928955078004.0..1.1920928955078003e+17: FLOAT____00051 :: is_defined_var :: var_is_introduced;
var -1.1920928955078003e+19..1.1920928955078003e+18: FLOAT____00052 :: is_defined_var :: var_is_introduced;
var -1.1920928955078004e+20..1.1920928955078004e+21: FLOAT____00053 :: is_defined_var :: var_is_introduced;
var -1.1920928955078004e+23..1.1920928955078004e+22: FLOAT____00054 :: is_defined_var :: var_is_introduced;
var -1.1920928955078004e+24..1.1920928955078005e+25: FLOAT____00055 :: is_defined_var :: var_is_introduced;
var -1.1920928955078005e+27..1.1920928955078006e+26: FLOAT____00056 :: is_defined_var :: var_is_introduced;
var -1.1920928955078006e+28..1.1920928955078004e+29: FLOAT____00057 :: is_defined_var :: var_is_introduced;
var -1.1920928955078003e+31..1.1920928955078006e+30: FLOAT____00058 :: is_defined_var :: var_is_introduced;
var -100.0..10.0: x :: output_var;
constraint float_lin_eq([-1.0, 1.1920928955078e-07], [FLOAT____00040, x], 0.0) :: defines_var(FLOAT____00040);
constraint float_lin_eq([-1.0, 1.0], [FLOAT____00001, x], -1.0) :: defines_var(FLOAT____00001);
constraint float_lin_eq([-1.0, 1.0], [FLOAT____00002, x], -2.0) :: defines_var(FLOAT____00002);
constraint float_lin_eq([-1.0, 1.0], [FLOAT____00004, x], -3.0) :: defines_var(FLOAT____00004);
constraint float_lin_eq([-1.0, 1.0], [FLOAT____00006, x], -4.0) :: defines_var(FLOAT____00006);
constraint float_lin_eq([-1.0, 1.0], [FLOAT____00008, x], -5.0) :: defines_var(FLOAT____00008);
constraint float_lin_eq([-1.0, 1.0], [FLOAT____00010, x], -6.0) :: defines_var(FLOAT____00010);
constraint float_lin_eq([-1.0, 1.0], [FLOAT____00012, x], -7.0) :: defines_var(FLOAT____00012);
constraint float_lin_eq([-1.0, 1.0], [FLOAT____00014, x], -8.0) :: defines_var(FLOAT____00014);
constraint float_lin_eq([-1.0, 1.0], [FLOAT____00016, x], -9.0) :: defines_var(FLOAT____00016);
constraint float_lin_eq([-1.0, 1.0], [FLOAT____00018, x], -10.0) :: defines_var(FLOAT____00018);
constraint float_lin_eq([-1.0, 1.0], [FLOAT____00020, x], -11.0) :: defines_var(FLOAT____00020);
constraint float_lin_eq([-1.0, 1.0], [FLOAT____00022, x], -12.0) :: defines_var(FLOAT____00022);
constraint float_lin_eq([-1.0, 1.0], [FLOAT____00024, x], -13.0) :: defines_var(FLOAT____00024);
constraint float_lin_eq([-1.0, 1.0], [FLOAT____00026, x], -14.0) :: defines_var(FLOAT____00026);
constraint float_lin_eq([-1.0, 1.0], [FLOAT____00028, x], -15.0) :: defines_var(FLOAT____00028);
constraint float_lin_eq([-1.0, 1.0], [FLOAT____00030, x], -16.0) :: defines_var(FLOAT____00030);
constraint float_lin_eq([-1.0, 1.0], [FLOAT____00032, x], -17.0) :: defines_var(FLOAT____00032);
constraint float_lin_eq([-1.0, 1.0], [FLOAT____00034, x], -18.0) :: defines_var(FLOAT____00034);
constraint float_lin_eq([-1.0, 1.0], [FLOAT____00036, x], -19.0) :: defines_var(FLOAT____00036);
constraint float_lin_eq([-1.0, 1.0], [FLOAT____00038, x], -20.0) :: defines_var(FLOAT____00038);
constraint float_plus(FLOAT____00039, FLOAT____00058, 0.0);
constraint float_times(FLOAT____00001, FLOAT____00002, FLOAT____00003) :: defines_var(FLOAT____00003);
constraint float_times(FLOAT____00003, FLOAT____00004, FLOAT____00005) :: defines_var(FLOAT____00005);
constraint float_times(FLOAT____00005, FLOAT____00006, FLOAT____00007) :: defines_var(FLOAT____00007);
constraint float_times(FLOAT____00007, FLOAT____00008, FLOAT____00009) :: defines_var(FLOAT____00009);
constraint float_times(FLOAT____00009, FLOAT____00010, FLOAT____00011) :: defines_var(FLOAT____00011);
constraint float_times(FLOAT____00011, FLOAT____00012, FLOAT____00013) :: defines_var(FLOAT____00013);
constraint float_times(FLOAT____00013, FLOAT____00014, FLOAT____00015) :: defines_var(FLOAT____00015);
constraint float_times(FLOAT____00015, FLOAT____00016, FLOAT____00017) :: defines_var(FLOAT____00017);
constraint float_times(FLOAT____00017, FLOAT____00018, FLOAT____00019) :: defines_var(FLOAT____00019);
constraint float_times(FLOAT____00019, FLOAT____00020, FLOAT____00021) :: defines_var(FLOAT____00021);
constraint float_times(FLOAT____00021, FLOAT____00022, FLOAT____00023) :: defines_var(FLOAT____00023);
constraint float_times(FLOAT____00023, FLOAT____00024, FLOAT____00025) :: defines_var(FLOAT____00025);
constraint float_times(FLOAT____00025, FLOAT____00026, FLOAT____00027) :: defines_var(FLOAT____00027);
constraint float_times(FLOAT____00027, FLOAT____00028, FLOAT____00029) :: defines_var(FLOAT____00029);
constraint float_times(FLOAT____00029, FLOAT____00030, FLOAT____00031) :: defines_var(FLOAT____00031);
constraint float_times(FLOAT____00031, FLOAT____00032, FLOAT____00033) :: defines_var(FLOAT____00033);
constraint float_times(FLOAT____00033, FLOAT____00034, FLOAT____00035) :: defines_var(FLOAT____00035);
constraint float_times(FLOAT____00035, FLOAT____00036, FLOAT____00037) :: defines_var(FLOAT____00037);
constraint float_times(FLOAT____00037, FLOAT____00038, FLOAT____00039) :: defines_var(FLOAT____00039);
constraint float_times(FLOAT____00040, x, FLOAT____00041) :: defines_var(FLOAT____00041);
constraint float_times(FLOAT____00041, x, FLOAT____00042) :: defines_var(FLOAT____00042);
constraint float_times(FLOAT____00042, x, FLOAT____00043) :: defines_var(FLOAT____00043);
constraint float_times(FLOAT____00043, x, FLOAT____00044) :: defines_var(FLOAT____00044);
constraint float_times(FLOAT____00044, x, FLOAT____00045) :: defines_var(FLOAT____00045);
constraint float_times(FLOAT____00045, x, FLOAT____00046) :: defines_var(FLOAT____00046);
constraint float_times(FLOAT____00046, x, FLOAT____00047) :: defines_var(FLOAT____00047);
constraint float_times(FLOAT____00047, x, FLOAT____00048) :: defines_var(FLOAT____00048);
constraint float_times(FLOAT____00048, x, FLOAT____00049) :: defines_var(FLOAT____00049);
constraint float_times(FLOAT____00049, x, FLOAT____00050) :: defines_var(FLOAT____00050);
constraint float_times(FLOAT____00050, x, FLOAT____00051) :: defines_var(FLOAT____00051);
constraint float_times(FLOAT____00051, x, FLOAT____00052) :: defines_var(FLOAT____00052);
constraint float_times(FLOAT____00052, x, FLOAT____00053) :: defines_var(FLOAT____00053);
constraint float_times(FLOAT____00053, x, FLOAT____00054) :: defines_var(FLOAT____00054);
constraint float_times(FLOAT____00054, x, FLOAT____00055) :: defines_var(FLOAT____00055);
constraint float_times(FLOAT____00055, x, FLOAT____00056) :: defines_var(FLOAT____00056);
constraint float_times(FLOAT____00056, x, FLOAT____00057) :: defines_var(FLOAT____00057);
constraint float_times(FLOAT____00057, x, FLOAT____00058) :: defines_var(FLOAT____00058);
solve  :: float_search([x], 1e-13, input_order, indomain_split, complete) minimize x;
